15
1 0 46
2 1 92
3 0 45
4 0 16
5 0 38
5 2 93
5 4 82
6 0 2
8 0 5
8 1 46
8 3 12
8 5 7
8 7 90
9 0 60
9 1 17
9 2 79
9 7 23
10 0 88
10 2 98
10 3 91
10 5 39
10 7 15
11 0 41
11 5 48
11 8 16
11 9 47
11 10 44
12 0 63
12 3 53
12 5 73
12 6 89
12 7 18
12 10 72
13 0 58
13 2 34
13 7 42
13 8 4
13 12 36
14 0 50
14 3 43
14 4 93
14 7 96
14 12 7
14 13 22
